120
1000
200
198
198
196
196
196
195
195
194
193
193
191
191
191
190
190
190
189
189
188
187
187
186
186
185
185
185
184
183
183
182
182
182
181
181
180
180
180
180
180
180
179
178
178
178
178
178
178
178
178
176
175
174
174
173
172
172
172
171
171
171
170
170
170
170
170
169
169
169
168
168
168
168
168
166
166
166
164
164
164
164
164
163
163
162
162
162
161
161
160
159
159
159
159
158
158
158
157
157
156
156
156
155
155
155
155
154
153
153
153
153
151
151
151
151
151
151
151
150
150
